% File represents an instance of a Composite Structure problem to be solved by a CP framework
% Created on 2025-03-26 10:41:19.368
T = 52;
n = 9;
m = 12;
edges = [(1, 2),
(4, 5),
(7, 8),
(2, 3),
(5, 6),
(8, 9),
(1, 4),
(7, 4),
(2, 5),
(5, 8),
(3, 6),
(6, 9)];
counts = [|16, 14, 16, 6,
|16, 14, 16, 4,
|16, 14, 16, 2,
|16, 12, 16, 6,
|16, 12, 16, 4,
|16, 12, 16, 2,
|16, 14, 16, 6,
|16, 10, 16, 4,
|16, 10, 16, 2|];
